problem_generation/data/GISP/train/er_n=60_m=1038_p=0.60_SET2_setparam=100.00_alpha=0.50_737.lp
maximize
OBJ:100x0 + 100x1 + 100x2 + 100x3 + 100x4 + 100x5 + 100x6 + 100x7 + 100x8 + 100x9 + 100x10 + 100x11 + 100x12 + 100x13 + 100x14 + 100x15 + 100x16 + 100x17 + 100x18 + 100x19 + 100x20 + 100x21 + 100x22 + 100x23 + 100x24 + 100x25 + 100x26 + 100x27 + 100x28 + 100x29 + 100x30 + 100x31 + 100x32 + 100x33 + 100x34 + 100x35 + 100x36 + 100x37 + 100x38 + 100x39 + 100x40 + 100x41 + 100x42 + 100x43 + 100x44 + 100x45 + 100x46 + 100x47 + 100x48 + 100x49 + 100x50 + 100x51 + 100x52 + 100x53 + 100x54 + 100x55 + 100x56 + 100x57 + 100x58 + 100x59 - y7_26 - y15_39 - y28_58 - y7_35 - y18_44 - y48_54 - y11_14 - y29_50 - y21_46 - y40_59 - y10_27 - y10_36 - y33_38 - y44_47 - y3_6 - y10_54 - y3_15 - y14_15 - y22_28 - y14_33 - y15_25 - y18_21 - y36_57 - y17_53 - y40_45 - y29_54 - y21_59 - y10_31 - y10_40 - y10_49 - y44_51 - y3_10 - y51_59 - y32_55 - y43_55 - y13_51 - y14_28 - y14_37 - y7_16 - y47_52 - y21_27 - y6_38 - y48_53 - y6_47 - y40_49 - y10_17 - y10_26 - y2_22 - y25_33 - y2_40 - y51_54 - y32_50 - y14_23 - y32_59 - y1_53 - y35_55 - y14_32 - y16_51 - y9_30 - y5_41 - y28_43 - y47_56 - y9_39 - y6_15 - y9_48 - y21_31 - y6_42 - y6_51 - y21_49 - y39_48 - y20_53 - y2_26 - y32_36 - y51_58 - y13_41 - y3_18 - y35_50 - y13_59 - y35_59 - y16_55 - y28_38 - y5_45 - y9_52 - y21_26 - y42_58 - y6_46 - y2_3 - y20_48 - y31_57 - y23_53 - y3_4 - y43_49 - y13_45 - y24_45 - y32_58 - y35_45 - y9_11 - y16_59 - y9_20 - y5_31 - y17_33 - y28_33 - y9_29 - y6_14 - y42_44 - y21_30 - y39_47 - y39_56 - y12_39 - y2_16 - y12_48 - y4_44 - y12_57 - y13_22 - y1_29 - y13_31 - y24_31 - y43_44 - y1_38 - y13_40 - y43_53 - y16_36 - y13_49 - y16_45 - y5_8 - y1_56 - y35_58 - y5_17 - y38_51 - y49_51 - y50_52 - y27_59 - y12_34 - y23_34 - y31_47 - y23_52 - y13_26 - y24_26 - y4_57 - y32_39 - y13_35 - y16_31 - y16_40 - y5_12 - y46_50 - y5_30 - y9_28 - y27_36 - y27_45 - y42_43 - y50_56 - y19_50 - y11_46 - y19_59 - y11_55 - y12_29 - y4_25 - y23_38 - y31_51 - y12_47 - y12_56 - y45_53 - y13_30 - y24_30 - y16_26 - y37_58 - y16_35 - y1_46 - y9_14 - y26_48 - y38_50 - y38_59 - y27_31 - y8_27 - y50_51 - y27_58 - y19_54 - y30_54 - y42_56 - y12_15 - y0_59 - y23_24 - y23_42 - y34_39 - y13_16 - y24_25 - y56_57 - y3_51 - y15_34 - y5_11 - y15_43 - y46_58 - y18_39 - y8_13 - y8_22 - y30_31 - y0_27 - y11_27 - y19_40 - y41_46 - y30_58 - y4_6 - y52_55 - y20_32 - y23_28 - y12_28 - y4_24 - y1_9 - y34_43 - y22_50 - y37_48 - y37_57 - y7_43 - y18_43 - y15_56 - y18_52 - y19_26 - y8_35 - y0_31 - y4_10 - y41_59 - y34_38 - y34_47 - y45_47 - y22_54 - y37_52 - y14_59 - y7_29 - y15_51 - y0_17 - y29_53 - y40_53 - y0_35 - y41_54 - y52_54 - y44_59 - y25_55 - y22_40 - y22_49 - y34_51 - y22_58 - y37_56 - y26_28 - y26_46 - y8_16 - y21_44 - y29_57 - y11_30 - y25_32 - y44_45 - y41_58 - y25_41 - y10_52 - y33_54 - y2_48 - y2_57 - y25_59 - y34_37 - y14_49 - y55_59 - y36_55 - y47_55 - y26_32 - y7_28 - y9_56 - y0_16 - y25_36 - y10_47 - y44_49 - y10_56 - y22_30 - y22_39 - y24_58 - y3_44 - y36_41 - y36_50 - y47_50 - y28_46 - y47_59 - y17_55 - y28_55 - y6_27 - y21_25 - y0_2 - y6_36 - y6_45 - y6_54 - y10_15 - y2_20 - y33_44 - y2_47 - y3_12 - y32_48 - y22_25 - y3_21 - y43_57 - y13_53 - y24_53 - y16_58 - y28_41 - y36_54 - y5_48 - y9_55 - y6_31 - y21_29 - y6_40 - y40_42 - y40_51 - y25_26 - y25_35 - y32_52 - y43_52 - y13_48 - y14_25 - y35_57 - y17_18 - y5_34 - y17_36 - y28_36 - y36_49 - y47_49 - y5_43 - y9_59 - y21_33 - y6_44 - y2_10 - y10_23 - y32_38 - y32_47 - y16_48 - y16_57 - y5_38 - y28_49 - y58_59 - y9_54 - y50_55 - y6_30 - y42_51 - y19_58 - y2_5 - y2_14 - y20_50 - y23_46 - y20_59 - y13_20 - y4_51 - y32_42 - y51_55 - y24_38 - y35_38 - y32_51 - y16_34 - y35_47 - y1_54 - y13_56 - y16_52 - y5_15 - y36_39 - y5_42 - y6_7 - y27_48 - y27_57 - y50_59 - y30_53 - y11_58 - y23_32 - y39_58 - y23_41 - y2_18 - y31_54 - y4_55 - y13_33 - y24_33 - y16_29 - y35_42 - y1_49 - y46_48 - y46_57 - y5_28 - y9_26 - y5_37 - y8_39 - y19_39 - y30_39 - y30_48 - y30_57 - y11_53 - y20_31 - y23_27 - y2_4 - y31_40 - y12_36 - y20_49 - y31_49 - y1_8 - y23_54 - y13_19 - y24_37 - y16_42 - y38_48 - y9_21 - y7_51 - y27_29 - y8_25 - y19_34 - y19_43 - y27_56 - y30_52 - y11_48 - y12_13 - y20_35 - y12_31 - y1_12 - y45_46 - y13_23 - y53_59 - y45_55 - y37_51 - y3_58 - y26_41 - y38_43 - y9_16 - y26_50 - y18_46 - y26_59 - y7_55 - y8_20 - y18_55 - y19_29 - y27_42 - y11_25 - y0_34 - y8_56 - y30_56 - y0_52 - y52_53 - y4_13 - y23_26 - y31_39 - y4_22 - y23_35 - y4_31 - y34_41 - y1_16 - y53_54 - y16_23 - y34_59 - y56_59 - y3_53 - y15_27 - y26_36 - y15_45 - y26_45 - y18_41 - y15_54 - y26_54 - y7_50 - y8_15 - y18_59 - y27_37 - y11_20 - y19_33 - y30_33 - y0_29 - y0_38 - y23_30 - y45_54 - y3_57 - y15_22 - y37_59 - y18_27 - y8_10 - y8_19 - y48_55 - y0_15 - y0_24 - y21_56 - y11_33 - y0_42 - y12_16 - y41_52 - y4_12 - y44_57 - y34_49 - y14_43 - y45_58 - y3_52 - y37_54 - y7_22 - y18_40 - y0_10 - y29_46 - y40_46 - y48_59 - y30_32 - y41_47 - y4_7 - y52_56 - y44_52 - y25_48 - y3_20 - y3_29 - y14_29 - y34_44 - y14_38 - y22_51 - y3_47 - y14_56
 Subject to
C1: x0+x1 <=1 
C2: x0+x2-y0_2 <=1 
C3: x0+x3 <=1 
C4: x0+x4 <=1 
C5: x0+x5 <=1 
C6: x0+x6 <=1 
C7: x0+x7 <=1 
C8: x0+x10-y0_10 <=1 
C9: x0+x12 <=1 
C10: x0+x14 <=1 
C11: x0+x15-y0_15 <=1 
C12: x0+x16-y0_16 <=1 
C13: x0+x17-y0_17 <=1 
C14: x0+x20 <=1 
C15: x0+x24-y0_24 <=1 
C16: x0+x27-y0_27 <=1 
C17: x0+x28 <=1 
C18: x0+x29-y0_29 <=1 
C19: x0+x31-y0_31 <=1 
C20: x0+x34-y0_34 <=1 
C21: x0+x35-y0_35 <=1 
C22: x0+x37 <=1 
C23: x0+x38-y0_38 <=1 
C24: x0+x40 <=1 
C25: x0+x42-y0_42 <=1 
C26: x0+x43 <=1 
C27: x0+x46 <=1 
C28: x0+x49 <=1 
C29: x0+x52-y0_52 <=1 
C30: x0+x53 <=1 
C31: x0+x57 <=1 
C32: x0+x59-y0_59 <=1 
C33: x1+x2 <=1 
C34: x1+x3 <=1 
C35: x1+x6 <=1 
C36: x1+x8-y1_8 <=1 
C37: x1+x9-y1_9 <=1 
C38: x1+x12-y1_12 <=1 
C39: x1+x16-y1_16 <=1 
C40: x1+x17 <=1 
C41: x1+x18 <=1 
C42: x1+x20 <=1 
C43: x1+x22 <=1 
C44: x1+x23 <=1 
C45: x1+x24 <=1 
C46: x1+x25 <=1 
C47: x1+x29-y1_29 <=1 
C48: x1+x31 <=1 
C49: x1+x33 <=1 
C50: x1+x35 <=1 
C51: x1+x36 <=1 
C52: x1+x38-y1_38 <=1 
C53: x1+x40 <=1 
C54: x1+x41 <=1 
C55: x1+x46-y1_46 <=1 
C56: x1+x47 <=1 
C57: x1+x48 <=1 
C58: x1+x49-y1_49 <=1 
C59: x1+x52 <=1 
C60: x1+x53-y1_53 <=1 
C61: x1+x54-y1_54 <=1 
C62: x1+x55 <=1 
C63: x1+x56-y1_56 <=1 
C64: x1+x57 <=1 
C65: x1+x59 <=1 
C66: x2+x3-y2_3 <=1 
C67: x2+x4-y2_4 <=1 
C68: x2+x5-y2_5 <=1 
C69: x2+x8 <=1 
C70: x2+x9 <=1 
C71: x2+x10-y2_10 <=1 
C72: x2+x13 <=1 
C73: x2+x14-y2_14 <=1 
C74: x2+x15 <=1 
C75: x2+x16-y2_16 <=1 
C76: x2+x18-y2_18 <=1 
C77: x2+x20-y2_20 <=1 
C78: x2+x21 <=1 
C79: x2+x22-y2_22 <=1 
C80: x2+x26-y2_26 <=1 
C81: x2+x27 <=1 
C82: x2+x31 <=1 
C83: x2+x34 <=1 
C84: x2+x35 <=1 
C85: x2+x36 <=1 
C86: x2+x37 <=1 
C87: x2+x40-y2_40 <=1 
C88: x2+x41 <=1 
C89: x2+x47-y2_47 <=1 
C90: x2+x48-y2_48 <=1 
C91: x2+x52 <=1 
C92: x2+x53 <=1 
C93: x2+x55 <=1 
C94: x2+x57-y2_57 <=1 
C95: x2+x59 <=1 
C96: x3+x4-y3_4 <=1 
C97: x3+x6-y3_6 <=1 
C98: x3+x7 <=1 
C99: x3+x8 <=1 
C100: x3+x9 <=1 
C101: x3+x10-y3_10 <=1 
C102: x3+x12-y3_12 <=1 
C103: x3+x13 <=1 
C104: x3+x15-y3_15 <=1 
C105: x3+x18-y3_18 <=1 
C106: x3+x20-y3_20 <=1 
C107: x3+x21-y3_21 <=1 
C108: x3+x24 <=1 
C109: x3+x25 <=1 
C110: x3+x26 <=1 
C111: x3+x27 <=1 
C112: x3+x28 <=1 
C113: x3+x29-y3_29 <=1 
C114: x3+x30 <=1 
C115: x3+x32 <=1 
C116: x3+x38 <=1 
C117: x3+x44-y3_44 <=1 
C118: x3+x47-y3_47 <=1 
C119: x3+x48 <=1 
C120: x3+x51-y3_51 <=1 
C121: x3+x52-y3_52 <=1 
C122: x3+x53-y3_53 <=1 
C123: x3+x57-y3_57 <=1 
C124: x3+x58-y3_58 <=1 
C125: x4+x5 <=1 
C126: x4+x6-y4_6 <=1 
C127: x4+x7-y4_7 <=1 
C128: x4+x10-y4_10 <=1 
C129: x4+x11 <=1 
C130: x4+x12-y4_12 <=1 
C131: x4+x13-y4_13 <=1 
C132: x4+x17 <=1 
C133: x4+x18 <=1 
C134: x4+x20 <=1 
C135: x4+x22-y4_22 <=1 
C136: x4+x23 <=1 
C137: x4+x24-y4_24 <=1 
C138: x4+x25-y4_25 <=1 
C139: x4+x27 <=1 
C140: x4+x30 <=1 
C141: x4+x31-y4_31 <=1 
C142: x4+x39 <=1 
C143: x4+x41 <=1 
C144: x4+x44-y4_44 <=1 
C145: x4+x45 <=1 
C146: x4+x49 <=1 
C147: x4+x51-y4_51 <=1 
C148: x4+x52 <=1 
C149: x4+x54 <=1 
C150: x4+x55-y4_55 <=1 
C151: x4+x57-y4_57 <=1 
C152: x4+x59 <=1 
C153: x5+x7 <=1 
C154: x5+x8-y5_8 <=1 
C155: x5+x9 <=1 
C156: x5+x11-y5_11 <=1 
C157: x5+x12-y5_12 <=1 
C158: x5+x15-y5_15 <=1 
C159: x5+x17-y5_17 <=1 
C160: x5+x22 <=1 
C161: x5+x26 <=1 
C162: x5+x28-y5_28 <=1 
C163: x5+x30-y5_30 <=1 
C164: x5+x31-y5_31 <=1 
C165: x5+x32 <=1 
C166: x5+x34-y5_34 <=1 
C167: x5+x37-y5_37 <=1 
C168: x5+x38-y5_38 <=1 
C169: x5+x41-y5_41 <=1 
C170: x5+x42-y5_42 <=1 
C171: x5+x43-y5_43 <=1 
C172: x5+x44 <=1 
C173: x5+x45-y5_45 <=1 
C174: x5+x46 <=1 
C175: x5+x48-y5_48 <=1 
C176: x5+x50 <=1 
C177: x5+x51 <=1 
C178: x5+x52 <=1 
C179: x5+x54 <=1 
C180: x5+x56 <=1 
C181: x5+x58 <=1 
C182: x5+x59 <=1 
C183: x6+x7-y6_7 <=1 
C184: x6+x8 <=1 
C185: x6+x10 <=1 
C186: x6+x12 <=1 
C187: x6+x14-y6_14 <=1 
C188: x6+x15-y6_15 <=1 
C189: x6+x17 <=1 
C190: x6+x18 <=1 
C191: x6+x20 <=1 
C192: x6+x21 <=1 
C193: x6+x22 <=1 
C194: x6+x25 <=1 
C195: x6+x27-y6_27 <=1 
C196: x6+x29 <=1 
C197: x6+x30-y6_30 <=1 
C198: x6+x31-y6_31 <=1 
C199: x6+x33 <=1 
C200: x6+x36-y6_36 <=1 
C201: x6+x37 <=1 
C202: x6+x38-y6_38 <=1 
C203: x6+x40-y6_40 <=1 
C204: x6+x41 <=1 
C205: x6+x42-y6_42 <=1 
C206: x6+x44-y6_44 <=1 
C207: x6+x45-y6_45 <=1 
C208: x6+x46-y6_46 <=1 
C209: x6+x47-y6_47 <=1 
C210: x6+x48 <=1 
C211: x6+x51-y6_51 <=1 
C212: x6+x52 <=1 
C213: x6+x54-y6_54 <=1 
C214: x6+x56 <=1 
C215: x7+x13 <=1 
C216: x7+x15 <=1 
C217: x7+x16-y7_16 <=1 
C218: x7+x19 <=1 
C219: x7+x22-y7_22 <=1 
C220: x7+x26-y7_26 <=1 
C221: x7+x28-y7_28 <=1 
C222: x7+x29-y7_29 <=1 
C223: x7+x32 <=1 
C224: x7+x33 <=1 
C225: x7+x35-y7_35 <=1 
C226: x7+x36 <=1 
C227: x7+x38 <=1 
C228: x7+x40 <=1 
C229: x7+x42 <=1 
C230: x7+x43-y7_43 <=1 
C231: x7+x45 <=1 
C232: x7+x47 <=1 
C233: x7+x48 <=1 
C234: x7+x49 <=1 
C235: x7+x50-y7_50 <=1 
C236: x7+x51-y7_51 <=1 
C237: x7+x54 <=1 
C238: x7+x55-y7_55 <=1 
C239: x7+x58 <=1 
C240: x8+x9 <=1 
C241: x8+x10-y8_10 <=1 
C242: x8+x13-y8_13 <=1 
C243: x8+x15-y8_15 <=1 
C244: x8+x16-y8_16 <=1 
C245: x8+x17 <=1 
C246: x8+x19-y8_19 <=1 
C247: x8+x20-y8_20 <=1 
C248: x8+x22-y8_22 <=1 
C249: x8+x24 <=1 
C250: x8+x25-y8_25 <=1 
C251: x8+x27-y8_27 <=1 
C252: x8+x28 <=1 
C253: x8+x31 <=1 
C254: x8+x32 <=1 
C255: x8+x35-y8_35 <=1 
C256: x8+x36 <=1 
C257: x8+x37 <=1 
C258: x8+x38 <=1 
C259: x8+x39-y8_39 <=1 
C260: x8+x40 <=1 
C261: x8+x42 <=1 
C262: x8+x43 <=1 
C263: x8+x45 <=1 
C264: x8+x46 <=1 
C265: x8+x47 <=1 
C266: x8+x49 <=1 
C267: x8+x50 <=1 
C268: x8+x51 <=1 
C269: x8+x52 <=1 
C270: x8+x53 <=1 
C271: x8+x54 <=1 
C272: x8+x55 <=1 
C273: x8+x56-y8_56 <=1 
C274: x8+x58 <=1 
C275: x9+x11-y9_11 <=1 
C276: x9+x12 <=1 
C277: x9+x14-y9_14 <=1 
C278: x9+x16-y9_16 <=1 
C279: x9+x17 <=1 
C280: x9+x19 <=1 
C281: x9+x20-y9_20 <=1 
C282: x9+x21-y9_21 <=1 
C283: x9+x22 <=1 
C284: x9+x23 <=1 
C285: x9+x24 <=1 
C286: x9+x26-y9_26 <=1 
C287: x9+x28-y9_28 <=1 
C288: x9+x29-y9_29 <=1 
C289: x9+x30-y9_30 <=1 
C290: x9+x33 <=1 
C291: x9+x35 <=1 
C292: x9+x39-y9_39 <=1 
C293: x9+x41 <=1 
C294: x9+x42 <=1 
C295: x9+x43 <=1 
C296: x9+x48-y9_48 <=1 
C297: x9+x49 <=1 
C298: x9+x50 <=1 
C299: x9+x52-y9_52 <=1 
C300: x9+x54-y9_54 <=1 
C301: x9+x55-y9_55 <=1 
C302: x9+x56-y9_56 <=1 
C303: x9+x59-y9_59 <=1 
C304: x10+x15-y10_15 <=1 
C305: x10+x16 <=1 
C306: x10+x17-y10_17 <=1 
C307: x10+x18 <=1 
C308: x10+x19 <=1 
C309: x10+x20 <=1 
C310: x10+x23-y10_23 <=1 
C311: x10+x26-y10_26 <=1 
C312: x10+x27-y10_27 <=1 
C313: x10+x29 <=1 
C314: x10+x31-y10_31 <=1 
C315: x10+x33 <=1 
C316: x10+x36-y10_36 <=1 
C317: x10+x38 <=1 
C318: x10+x40-y10_40 <=1 
C319: x10+x44 <=1 
C320: x10+x45 <=1 
C321: x10+x47-y10_47 <=1 
C322: x10+x49-y10_49 <=1 
C323: x10+x52-y10_52 <=1 
C324: x10+x54-y10_54 <=1 
C325: x10+x55 <=1 
C326: x10+x56-y10_56 <=1 
C327: x11+x14-y11_14 <=1 
C328: x11+x17 <=1 
C329: x11+x18 <=1 
C330: x11+x19 <=1 
C331: x11+x20-y11_20 <=1 
C332: x11+x21 <=1 
C333: x11+x23 <=1 
C334: x11+x24 <=1 
C335: x11+x25-y11_25 <=1 
C336: x11+x26 <=1 
C337: x11+x27-y11_27 <=1 
C338: x11+x30-y11_30 <=1 
C339: x11+x33-y11_33 <=1 
C340: x11+x36 <=1 
C341: x11+x38 <=1 
C342: x11+x39 <=1 
C343: x11+x44 <=1 
C344: x11+x46-y11_46 <=1 
C345: x11+x47 <=1 
C346: x11+x48-y11_48 <=1 
C347: x11+x49 <=1 
C348: x11+x50 <=1 
C349: x11+x52 <=1 
C350: x11+x53-y11_53 <=1 
C351: x11+x55-y11_55 <=1 
C352: x11+x56 <=1 
C353: x11+x58-y11_58 <=1 
C354: x12+x13-y12_13 <=1 
C355: x12+x14 <=1 
C356: x12+x15-y12_15 <=1 
C357: x12+x16-y12_16 <=1 
C358: x12+x18 <=1 
C359: x12+x19 <=1 
C360: x12+x20 <=1 
C361: x12+x22 <=1 
C362: x12+x24 <=1 
C363: x12+x26 <=1 
C364: x12+x27 <=1 
C365: x12+x28-y12_28 <=1 
C366: x12+x29-y12_29 <=1 
C367: x12+x31-y12_31 <=1 
C368: x12+x33 <=1 
C369: x12+x34-y12_34 <=1 
C370: x12+x35 <=1 
C371: x12+x36-y12_36 <=1 
C372: x12+x39-y12_39 <=1 
C373: x12+x41 <=1 
C374: x12+x44 <=1 
C375: x12+x46 <=1 
C376: x12+x47-y12_47 <=1 
C377: x12+x48-y12_48 <=1 
C378: x12+x52 <=1 
C379: x12+x55 <=1 
C380: x12+x56-y12_56 <=1 
C381: x12+x57-y12_57 <=1 
C382: x12+x58 <=1 
C383: x13+x14 <=1 
C384: x13+x15 <=1 
C385: x13+x16-y13_16 <=1 
C386: x13+x19-y13_19 <=1 
C387: x13+x20-y13_20 <=1 
C388: x13+x21 <=1 
C389: x13+x22-y13_22 <=1 
C390: x13+x23-y13_23 <=1 
C391: x13+x25 <=1 
C392: x13+x26-y13_26 <=1 
C393: x13+x28 <=1 
C394: x13+x29 <=1 
C395: x13+x30-y13_30 <=1 
C396: x13+x31-y13_31 <=1 
C397: x13+x32 <=1 
C398: x13+x33-y13_33 <=1 
C399: x13+x34 <=1 
C400: x13+x35-y13_35 <=1 
C401: x13+x36 <=1 
C402: x13+x38 <=1 
C403: x13+x40-y13_40 <=1 
C404: x13+x41-y13_41 <=1 
C405: x13+x45-y13_45 <=1 
C406: x13+x46 <=1 
C407: x13+x48-y13_48 <=1 
C408: x13+x49-y13_49 <=1 
C409: x13+x51-y13_51 <=1 
C410: x13+x53-y13_53 <=1 
C411: x13+x56-y13_56 <=1 
C412: x13+x57 <=1 
C413: x13+x58 <=1 
C414: x13+x59-y13_59 <=1 
C415: x14+x15-y14_15 <=1 
C416: x14+x16 <=1 
C417: x14+x18 <=1 
C418: x14+x22 <=1 
C419: x14+x23-y14_23 <=1 
C420: x14+x25-y14_25 <=1 
C421: x14+x28-y14_28 <=1 
C422: x14+x29-y14_29 <=1 
C423: x14+x30 <=1 
C424: x14+x31 <=1 
C425: x14+x32-y14_32 <=1 
C426: x14+x33-y14_33 <=1 
C427: x14+x36 <=1 
C428: x14+x37-y14_37 <=1 
C429: x14+x38-y14_38 <=1 
C430: x14+x40 <=1 
C431: x14+x41 <=1 
C432: x14+x43-y14_43 <=1 
C433: x14+x45 <=1 
C434: x14+x46 <=1 
C435: x14+x48 <=1 
C436: x14+x49-y14_49 <=1 
C437: x14+x51 <=1 
C438: x14+x53 <=1 
C439: x14+x56-y14_56 <=1 
C440: x14+x59-y14_59 <=1 
C441: x15+x16 <=1 
C442: x15+x19 <=1 
C443: x15+x21 <=1 
C444: x15+x22-y15_22 <=1 
C445: x15+x23 <=1 
C446: x15+x25-y15_25 <=1 
C447: x15+x27-y15_27 <=1 
C448: x15+x28 <=1 
C449: x15+x34-y15_34 <=1 
C450: x15+x36 <=1 
C451: x15+x37 <=1 
C452: x15+x38 <=1 
C453: x15+x39-y15_39 <=1 
C454: x15+x40 <=1 
C455: x15+x43-y15_43 <=1 
C456: x15+x45-y15_45 <=1 
C457: x15+x51-y15_51 <=1 
C458: x15+x52 <=1 
C459: x15+x54-y15_54 <=1 
C460: x15+x56-y15_56 <=1 
C461: x15+x58 <=1 
C462: x16+x18 <=1 
C463: x16+x19 <=1 
C464: x16+x22 <=1 
C465: x16+x23-y16_23 <=1 
C466: x16+x25 <=1 
C467: x16+x26-y16_26 <=1 
C468: x16+x28 <=1 
C469: x16+x29-y16_29 <=1 
C470: x16+x30 <=1 
C471: x16+x31-y16_31 <=1 
C472: x16+x32 <=1 
C473: x16+x33 <=1 
C474: x16+x34-y16_34 <=1 
C475: x16+x35-y16_35 <=1 
C476: x16+x36-y16_36 <=1 
C477: x16+x39 <=1 
C478: x16+x40-y16_40 <=1 
C479: x16+x41 <=1 
C480: x16+x42-y16_42 <=1 
C481: x16+x44 <=1 
C482: x16+x45-y16_45 <=1 
C483: x16+x48-y16_48 <=1 
C484: x16+x51-y16_51 <=1 
C485: x16+x52-y16_52 <=1 
C486: x16+x54 <=1 
C487: x16+x55-y16_55 <=1 
C488: x16+x57-y16_57 <=1 
C489: x16+x58-y16_58 <=1 
C490: x16+x59-y16_59 <=1 
C491: x17+x18-y17_18 <=1 
C492: x17+x20 <=1 
C493: x17+x21 <=1 
C494: x17+x25 <=1 
C495: x17+x27 <=1 
C496: x17+x33-y17_33 <=1 
C497: x17+x36-y17_36 <=1 
C498: x17+x37 <=1 
C499: x17+x38 <=1 
C500: x17+x39 <=1 
C501: x17+x41 <=1 
C502: x17+x43 <=1 
C503: x17+x45 <=1 
C504: x17+x47 <=1 
C505: x17+x48 <=1 
C506: x17+x49 <=1 
C507: x17+x50 <=1 
C508: x17+x52 <=1 
C509: x17+x53-y17_53 <=1 
C510: x17+x55-y17_55 <=1 
C511: x17+x58 <=1 
C512: x17+x59 <=1 
C513: x18+x19 <=1 
C514: x18+x20 <=1 
C515: x18+x21-y18_21 <=1 
C516: x18+x24 <=1 
C517: x18+x26 <=1 
C518: x18+x27-y18_27 <=1 
C519: x18+x29 <=1 
C520: x18+x34 <=1 
C521: x18+x39-y18_39 <=1 
C522: x18+x40-y18_40 <=1 
C523: x18+x41-y18_41 <=1 
C524: x18+x42 <=1 
C525: x18+x43-y18_43 <=1 
C526: x18+x44-y18_44 <=1 
C527: x18+x46-y18_46 <=1 
C528: x18+x48 <=1 
C529: x18+x49 <=1 
C530: x18+x50 <=1 
C531: x18+x51 <=1 
C532: x18+x52-y18_52 <=1 
C533: x18+x53 <=1 
C534: x18+x55-y18_55 <=1 
C535: x18+x56 <=1 
C536: x18+x57 <=1 
C537: x18+x58 <=1 
C538: x18+x59-y18_59 <=1 
C539: x19+x20 <=1 
C540: x19+x21 <=1 
C541: x19+x22 <=1 
C542: x19+x25 <=1 
C543: x19+x26-y19_26 <=1 
C544: x19+x27 <=1 
C545: x19+x29-y19_29 <=1 
C546: x19+x32 <=1 
C547: x19+x33-y19_33 <=1 
C548: x19+x34-y19_34 <=1 
C549: x19+x39-y19_39 <=1 
C550: x19+x40-y19_40 <=1 
C551: x19+x41 <=1 
C552: x19+x42 <=1 
C553: x19+x43-y19_43 <=1 
C554: x19+x47 <=1 
C555: x19+x50-y19_50 <=1 
C556: x19+x51 <=1 
C557: x19+x52 <=1 
C558: x19+x54-y19_54 <=1 
C559: x19+x57 <=1 
C560: x19+x58-y19_58 <=1 
C561: x19+x59-y19_59 <=1 
C562: x20+x25 <=1 
C563: x20+x27 <=1 
C564: x20+x30 <=1 
C565: x20+x31-y20_31 <=1 
C566: x20+x32-y20_32 <=1 
C567: x20+x33 <=1 
C568: x20+x35-y20_35 <=1 
C569: x20+x36 <=1 
C570: x20+x37 <=1 
C571: x20+x43 <=1 
C572: x20+x45 <=1 
C573: x20+x47 <=1 
C574: x20+x48-y20_48 <=1 
C575: x20+x49-y20_49 <=1 
C576: x20+x50-y20_50 <=1 
C577: x20+x51 <=1 
C578: x20+x52 <=1 
C579: x20+x53-y20_53 <=1 
C580: x20+x55 <=1 
C581: x20+x57 <=1 
C582: x20+x59-y20_59 <=1 
C583: x21+x22 <=1 
C584: x21+x23 <=1 
C585: x21+x25-y21_25 <=1 
C586: x21+x26-y21_26 <=1 
C587: x21+x27-y21_27 <=1 
C588: x21+x28 <=1 
C589: x21+x29-y21_29 <=1 
C590: x21+x30-y21_30 <=1 
C591: x21+x31-y21_31 <=1 
C592: x21+x32 <=1 
C593: x21+x33-y21_33 <=1 
C594: x21+x37 <=1 
C595: x21+x39 <=1 
C596: x21+x41 <=1 
C597: x21+x43 <=1 
C598: x21+x44-y21_44 <=1 
C599: x21+x46-y21_46 <=1 
C600: x21+x47 <=1 
C601: x21+x49-y21_49 <=1 
C602: x21+x51 <=1 
C603: x21+x53 <=1 
C604: x21+x55 <=1 
C605: x21+x56-y21_56 <=1 
C606: x21+x59-y21_59 <=1 
C607: x22+x23 <=1 
C608: x22+x24 <=1 
C609: x22+x25-y22_25 <=1 
C610: x22+x27 <=1 
C611: x22+x28-y22_28 <=1 
C612: x22+x29 <=1 
C613: x22+x30-y22_30 <=1 
C614: x22+x31 <=1 
C615: x22+x38 <=1 
C616: x22+x39-y22_39 <=1 
C617: x22+x40-y22_40 <=1 
C618: x22+x41 <=1 
C619: x22+x42 <=1 
C620: x22+x44 <=1 
C621: x22+x46 <=1 
C622: x22+x47 <=1 
C623: x22+x49-y22_49 <=1 
C624: x22+x50-y22_50 <=1 
C625: x22+x51-y22_51 <=1 
C626: x22+x53 <=1 
C627: x22+x54-y22_54 <=1 
C628: x22+x55 <=1 
C629: x22+x57 <=1 
C630: x22+x58-y22_58 <=1 
C631: x22+x59 <=1 
C632: x23+x24-y23_24 <=1 
C633: x23+x25 <=1 
C634: x23+x26-y23_26 <=1 
C635: x23+x27-y23_27 <=1 
C636: x23+x28-y23_28 <=1 
C637: x23+x30-y23_30 <=1 
C638: x23+x31 <=1 
C639: x23+x32-y23_32 <=1 
C640: x23+x34-y23_34 <=1 
C641: x23+x35-y23_35 <=1 
C642: x23+x36 <=1 
C643: x23+x37 <=1 
C644: x23+x38-y23_38 <=1 
C645: x23+x39 <=1 
C646: x23+x41-y23_41 <=1 
C647: x23+x42-y23_42 <=1 
C648: x23+x45 <=1 
C649: x23+x46-y23_46 <=1 
C650: x23+x48 <=1 
C651: x23+x49 <=1 
C652: x23+x50 <=1 
C653: x23+x51 <=1 
C654: x23+x52-y23_52 <=1 
C655: x23+x53-y23_53 <=1 
C656: x23+x54-y23_54 <=1 
C657: x23+x57 <=1 
C658: x23+x58 <=1 
C659: x23+x59 <=1 
C660: x24+x25-y24_25 <=1 
C661: x24+x26-y24_26 <=1 
C662: x24+x30-y24_30 <=1 
C663: x24+x31-y24_31 <=1 
C664: x24+x33-y24_33 <=1 
C665: x24+x34 <=1 
C666: x24+x36 <=1 
C667: x24+x37-y24_37 <=1 
C668: x24+x38-y24_38 <=1 
C669: x24+x41 <=1 
C670: x24+x42 <=1 
C671: x24+x44 <=1 
C672: x24+x45-y24_45 <=1 
C673: x24+x46 <=1 
C674: x24+x52 <=1 
C675: x24+x53-y24_53 <=1 
C676: x24+x54 <=1 
C677: x24+x58-y24_58 <=1 
C678: x25+x26-y25_26 <=1 
C679: x25+x27 <=1 
C680: x25+x28 <=1 
C681: x25+x30 <=1 
C682: x25+x32-y25_32 <=1 
C683: x25+x33-y25_33 <=1 
C684: x25+x34 <=1 
C685: x25+x35-y25_35 <=1 
C686: x25+x36-y25_36 <=1 
C687: x25+x38 <=1 
C688: x25+x39 <=1 
C689: x25+x41-y25_41 <=1 
C690: x25+x42 <=1 
C691: x25+x43 <=1 
C692: x25+x46 <=1 
C693: x25+x47 <=1 
C694: x25+x48-y25_48 <=1 
C695: x25+x51 <=1 
C696: x25+x53 <=1 
C697: x25+x55-y25_55 <=1 
C698: x25+x58 <=1 
C699: x25+x59-y25_59 <=1 
C700: x26+x28-y26_28 <=1 
C701: x26+x32-y26_32 <=1 
C702: x26+x35 <=1 
C703: x26+x36-y26_36 <=1 
C704: x26+x38 <=1 
C705: x26+x41-y26_41 <=1 
C706: x26+x42 <=1 
C707: x26+x43 <=1 
C708: x26+x45-y26_45 <=1 
C709: x26+x46-y26_46 <=1 
C710: x26+x48-y26_48 <=1 
C711: x26+x50-y26_50 <=1 
C712: x26+x52 <=1 
C713: x26+x53 <=1 
C714: x26+x54-y26_54 <=1 
C715: x26+x56 <=1 
C716: x26+x57 <=1 
C717: x26+x59-y26_59 <=1 
C718: x27+x29-y27_29 <=1 
C719: x27+x30 <=1 
C720: x27+x31-y27_31 <=1 
C721: x27+x35 <=1 
C722: x27+x36-y27_36 <=1 
C723: x27+x37-y27_37 <=1 
C724: x27+x38 <=1 
C725: x27+x40 <=1 
C726: x27+x42-y27_42 <=1 
C727: x27+x45-y27_45 <=1 
C728: x27+x47 <=1 
C729: x27+x48-y27_48 <=1 
C730: x27+x56-y27_56 <=1 
C731: x27+x57-y27_57 <=1 
C732: x27+x58-y27_58 <=1 
C733: x27+x59-y27_59 <=1 
C734: x28+x29 <=1 
C735: x28+x30 <=1 
C736: x28+x32 <=1 
C737: x28+x33-y28_33 <=1 
C738: x28+x34 <=1 
C739: x28+x35 <=1 
C740: x28+x36-y28_36 <=1 
C741: x28+x37 <=1 
C742: x28+x38-y28_38 <=1 
C743: x28+x41-y28_41 <=1 
C744: x28+x42 <=1 
C745: x28+x43-y28_43 <=1 
C746: x28+x46-y28_46 <=1 
C747: x28+x47 <=1 
C748: x28+x49-y28_49 <=1 
C749: x28+x50 <=1 
C750: x28+x52 <=1 
C751: x28+x55-y28_55 <=1 
C752: x28+x58-y28_58 <=1 
C753: x28+x59 <=1 
C754: x29+x30 <=1 
C755: x29+x37 <=1 
C756: x29+x44 <=1 
C757: x29+x46-y29_46 <=1 
C758: x29+x47 <=1 
C759: x29+x48 <=1 
C760: x29+x50-y29_50 <=1 
C761: x29+x52 <=1 
C762: x29+x53-y29_53 <=1 
C763: x29+x54-y29_54 <=1 
C764: x29+x57-y29_57 <=1 
C765: x29+x58 <=1 
C766: x29+x59 <=1 
C767: x30+x31-y30_31 <=1 
C768: x30+x32-y30_32 <=1 
C769: x30+x33-y30_33 <=1 
C770: x30+x34 <=1 
C771: x30+x39-y30_39 <=1 
C772: x30+x45 <=1 
C773: x30+x47 <=1 
C774: x30+x48-y30_48 <=1 
C775: x30+x49 <=1 
C776: x30+x51 <=1 
C777: x30+x52-y30_52 <=1 
C778: x30+x53-y30_53 <=1 
C779: x30+x54-y30_54 <=1 
C780: x30+x55 <=1 
C781: x30+x56-y30_56 <=1 
C782: x30+x57-y30_57 <=1 
C783: x30+x58-y30_58 <=1 
C784: x31+x33 <=1 
C785: x31+x35 <=1 
C786: x31+x36 <=1 
C787: x31+x38 <=1 
C788: x31+x39-y31_39 <=1 
C789: x31+x40-y31_40 <=1 
C790: x31+x42 <=1 
C791: x31+x43 <=1 
C792: x31+x46 <=1 
C793: x31+x47-y31_47 <=1 
C794: x31+x48 <=1 
C795: x31+x49-y31_49 <=1 
C796: x31+x50 <=1 
C797: x31+x51-y31_51 <=1 
C798: x31+x54-y31_54 <=1 
C799: x31+x56 <=1 
C800: x31+x57-y31_57 <=1 
C801: x31+x58 <=1 
C802: x32+x36-y32_36 <=1 
C803: x32+x38-y32_38 <=1 
C804: x32+x39-y32_39 <=1 
C805: x32+x41 <=1 
C806: x32+x42-y32_42 <=1 
C807: x32+x44 <=1 
C808: x32+x46 <=1 
C809: x32+x47-y32_47 <=1 
C810: x32+x48-y32_48 <=1 
C811: x32+x50-y32_50 <=1 
C812: x32+x51-y32_51 <=1 
C813: x32+x52-y32_52 <=1 
C814: x32+x55-y32_55 <=1 
C815: x32+x56 <=1 
C816: x32+x57 <=1 
C817: x32+x58-y32_58 <=1 
C818: x32+x59-y32_59 <=1 
C819: x33+x34 <=1 
C820: x33+x36 <=1 
C821: x33+x38-y33_38 <=1 
C822: x33+x44-y33_44 <=1 
C823: x33+x47 <=1 
C824: x33+x48 <=1 
C825: x33+x54-y33_54 <=1 
C826: x33+x55 <=1 
C827: x33+x59 <=1 
C828: x34+x35 <=1 
C829: x34+x36 <=1 
C830: x34+x37-y34_37 <=1 
C831: x34+x38-y34_38 <=1 
C832: x34+x39-y34_39 <=1 
C833: x34+x40 <=1 
C834: x34+x41-y34_41 <=1 
C835: x34+x42 <=1 
C836: x34+x43-y34_43 <=1 
C837: x34+x44-y34_44 <=1 
C838: x34+x47-y34_47 <=1 
C839: x34+x49-y34_49 <=1 
C840: x34+x50 <=1 
C841: x34+x51-y34_51 <=1 
C842: x34+x52 <=1 
C843: x34+x55 <=1 
C844: x34+x58 <=1 
C845: x34+x59-y34_59 <=1 
C846: x35+x38-y35_38 <=1 
C847: x35+x39 <=1 
C848: x35+x41 <=1 
C849: x35+x42-y35_42 <=1 
C850: x35+x43 <=1 
C851: x35+x45-y35_45 <=1 
C852: x35+x47-y35_47 <=1 
C853: x35+x49 <=1 
C854: x35+x50-y35_50 <=1 
C855: x35+x53 <=1 
C856: x35+x54 <=1 
C857: x35+x55-y35_55 <=1 
C858: x35+x57-y35_57 <=1 
C859: x35+x58-y35_58 <=1 
C860: x35+x59-y35_59 <=1 
C861: x36+x38 <=1 
C862: x36+x39-y36_39 <=1 
C863: x36+x41-y36_41 <=1 
C864: x36+x47 <=1 
C865: x36+x48 <=1 
C866: x36+x49-y36_49 <=1 
C867: x36+x50-y36_50 <=1 
C868: x36+x52 <=1 
C869: x36+x54-y36_54 <=1 
C870: x36+x55-y36_55 <=1 
C871: x36+x57-y36_57 <=1 
C872: x36+x59 <=1 
C873: x37+x39 <=1 
C874: x37+x46 <=1 
C875: x37+x47 <=1 
C876: x37+x48-y37_48 <=1 
C877: x37+x49 <=1 
C878: x37+x51-y37_51 <=1 
C879: x37+x52-y37_52 <=1 
C880: x37+x53 <=1 
C881: x37+x54-y37_54 <=1 
C882: x37+x56-y37_56 <=1 
C883: x37+x57-y37_57 <=1 
C884: x37+x58-y37_58 <=1 
C885: x37+x59-y37_59 <=1 
C886: x38+x39 <=1 
C887: x38+x42 <=1 
C888: x38+x43-y38_43 <=1 
C889: x38+x45 <=1 
C890: x38+x46 <=1 
C891: x38+x47 <=1 
C892: x38+x48-y38_48 <=1 
C893: x38+x49 <=1 
C894: x38+x50-y38_50 <=1 
C895: x38+x51-y38_51 <=1 
C896: x38+x53 <=1 
C897: x38+x54 <=1 
C898: x38+x55 <=1 
C899: x38+x57 <=1 
C900: x38+x59-y38_59 <=1 
C901: x39+x40 <=1 
C902: x39+x42 <=1 
C903: x39+x43 <=1 
C904: x39+x46 <=1 
C905: x39+x47-y39_47 <=1 
C906: x39+x48-y39_48 <=1 
C907: x39+x49 <=1 
C908: x39+x50 <=1 
C909: x39+x51 <=1 
C910: x39+x53 <=1 
C911: x39+x56-y39_56 <=1 
C912: x39+x58-y39_58 <=1 
C913: x39+x59 <=1 
C914: x40+x42-y40_42 <=1 
C915: x40+x43 <=1 
C916: x40+x44 <=1 
C917: x40+x45-y40_45 <=1 
C918: x40+x46-y40_46 <=1 
C919: x40+x49-y40_49 <=1 
C920: x40+x51-y40_51 <=1 
C921: x40+x53-y40_53 <=1 
C922: x40+x54 <=1 
C923: x40+x55 <=1 
C924: x40+x56 <=1 
C925: x40+x57 <=1 
C926: x40+x58 <=1 
C927: x40+x59-y40_59 <=1 
C928: x41+x44 <=1 
C929: x41+x46-y41_46 <=1 
C930: x41+x47-y41_47 <=1 
C931: x41+x49 <=1 
C932: x41+x51 <=1 
C933: x41+x52-y41_52 <=1 
C934: x41+x54-y41_54 <=1 
C935: x41+x55 <=1 
C936: x41+x58-y41_58 <=1 
C937: x41+x59-y41_59 <=1 
C938: x42+x43-y42_43 <=1 
C939: x42+x44-y42_44 <=1 
C940: x42+x46 <=1 
C941: x42+x51-y42_51 <=1 
C942: x42+x53 <=1 
C943: x42+x56-y42_56 <=1 
C944: x42+x57 <=1 
C945: x42+x58-y42_58 <=1 
C946: x42+x59 <=1 
C947: x43+x44-y43_44 <=1 
C948: x43+x45 <=1 
C949: x43+x46 <=1 
C950: x43+x47 <=1 
C951: x43+x49-y43_49 <=1 
C952: x43+x51 <=1 
C953: x43+x52-y43_52 <=1 
C954: x43+x53-y43_53 <=1 
C955: x43+x55-y43_55 <=1 
C956: x43+x56 <=1 
C957: x43+x57-y43_57 <=1 
C958: x43+x59 <=1 
C959: x44+x45-y44_45 <=1 
C960: x44+x47-y44_47 <=1 
C961: x44+x49-y44_49 <=1 
C962: x44+x50 <=1 
C963: x44+x51-y44_51 <=1 
C964: x44+x52-y44_52 <=1 
C965: x44+x55 <=1 
C966: x44+x57-y44_57 <=1 
C967: x44+x59-y44_59 <=1 
C968: x45+x46-y45_46 <=1 
C969: x45+x47-y45_47 <=1 
C970: x45+x49 <=1 
C971: x45+x52 <=1 
C972: x45+x53-y45_53 <=1 
C973: x45+x54-y45_54 <=1 
C974: x45+x55-y45_55 <=1 
C975: x45+x58-y45_58 <=1 
C976: x46+x47 <=1 
C977: x46+x48-y46_48 <=1 
C978: x46+x49 <=1 
C979: x46+x50-y46_50 <=1 
C980: x46+x51 <=1 
C981: x46+x52 <=1 
C982: x46+x53 <=1 
C983: x46+x57-y46_57 <=1 
C984: x46+x58-y46_58 <=1 
C985: x47+x48 <=1 
C986: x47+x49-y47_49 <=1 
C987: x47+x50-y47_50 <=1 
C988: x47+x52-y47_52 <=1 
C989: x47+x55-y47_55 <=1 
C990: x47+x56-y47_56 <=1 
C991: x47+x59-y47_59 <=1 
C992: x48+x49 <=1 
C993: x48+x51 <=1 
C994: x48+x53-y48_53 <=1 
C995: x48+x54-y48_54 <=1 
C996: x48+x55-y48_55 <=1 
C997: x48+x56 <=1 
C998: x48+x57 <=1 
C999: x48+x59-y48_59 <=1 
C1000: x49+x50 <=1 
C1001: x49+x51-y49_51 <=1 
C1002: x49+x53 <=1 
C1003: x49+x54 <=1 
C1004: x49+x57 <=1 
C1005: x49+x59 <=1 
C1006: x50+x51-y50_51 <=1 
C1007: x50+x52-y50_52 <=1 
C1008: x50+x53 <=1 
C1009: x50+x55-y50_55 <=1 
C1010: x50+x56-y50_56 <=1 
C1011: x50+x57 <=1 
C1012: x50+x59-y50_59 <=1 
C1013: x51+x53 <=1 
C1014: x51+x54-y51_54 <=1 
C1015: x51+x55-y51_55 <=1 
C1016: x51+x56 <=1 
C1017: x51+x58-y51_58 <=1 
C1018: x51+x59-y51_59 <=1 
C1019: x52+x53-y52_53 <=1 
C1020: x52+x54-y52_54 <=1 
C1021: x52+x55-y52_55 <=1 
C1022: x52+x56-y52_56 <=1 
C1023: x52+x57 <=1 
C1024: x52+x58 <=1 
C1025: x52+x59 <=1 
C1026: x53+x54-y53_54 <=1 
C1027: x53+x59-y53_59 <=1 
C1028: x54+x56 <=1 
C1029: x54+x57 <=1 
C1030: x55+x57 <=1 
C1031: x55+x58 <=1 
C1032: x55+x59-y55_59 <=1 
C1033: x56+x57-y56_57 <=1 
C1034: x56+x58 <=1 
C1035: x56+x59-y56_59 <=1 
C1036: x57+x58 <=1 
C1037: x57+x59 <=1 
C1038: x58+x59-y58_59 <=1 

binary
x0
x1
x2
x3
x4
x5
x6
x7
x8
x9
x10
x11
x12
x13
x14
x15
x16
x17
x18
x19
x20
x21
x22
x23
x24
x25
x26
x27
x28
x29
x30
x31
x32
x33
x34
x35
x36
x37
x38
x39
x40
x41
x42
x43
x44
x45
x46
x47
x48
x49
x50
x51
x52
x53
x54
x55
x56
x57
x58
x59
