problem_generation/data/GISP/train/er_n=60_m=1038_p=0.60_SET2_setparam=100.00_alpha=0.50_737.sol
objective value:                                 1176
x0                                                  1 	(obj:100)
x9                                                  1 	(obj:100)
x11                                                 1 	(obj:100)
x15                                                 1 	(obj:100)
x27                                                 1 	(obj:100)
x29                                                 1 	(obj:100)
x31                                                 1 	(obj:100)
x32                                                 1 	(obj:100)
x34                                                 1 	(obj:100)
x45                                                 1 	(obj:100)
x51                                                 1 	(obj:100)
x54                                                 1 	(obj:100)
y29_54                                              1 	(obj:-1)
y51_54                                              1 	(obj:-1)
y9_11                                               1 	(obj:-1)
y9_29                                               1 	(obj:-1)
y27_45                                              1 	(obj:-1)
y31_51                                              1 	(obj:-1)
y27_31                                              1 	(obj:-1)
y15_34                                              1 	(obj:-1)
y0_27                                               1 	(obj:-1)
y11_27                                              1 	(obj:-1)
y0_31                                               1 	(obj:-1)
y15_51                                              1 	(obj:-1)
y34_51                                              1 	(obj:-1)
y9_54                                               1 	(obj:-1)
y32_51                                              1 	(obj:-1)
y31_54                                              1 	(obj:-1)
y27_29                                              1 	(obj:-1)
y0_34                                               1 	(obj:-1)
y15_27                                              1 	(obj:-1)
y15_45                                              1 	(obj:-1)
y15_54                                              1 	(obj:-1)
y0_29                                               1 	(obj:-1)
y45_54                                              1 	(obj:-1)
y0_15                                               1 	(obj:-1)
